p cnf 999 615
113 0
121 0
178 0
219 0
234 0
327 0
349 0
383 0
446 0
459 0
487 0
511 0
526 0
557 0
582 0
671 0
699 0
745 0
781 0
814 0
837 0
842 0
873 0
963 0
-111 0
-112 0
-114 0
-115 0
-116 0
-117 0
-118 0
-119 0
-122 0
-123 0
-124 0
-125 0
-126 0
-127 0
-128 0
-129 0
-171 0
-172 0
-173 0
-174 0
-175 0
-176 0
-177 0
-179 0
-211 0
-212 0
-213 0
-214 0
-215 0
-216 0
-217 0
-218 0
-231 0
-232 0
-233 0
-235 0
-236 0
-237 0
-238 0
-239 0
-321 0
-322 0
-323 0
-324 0
-325 0
-326 0
-328 0
-329 0
-341 0
-342 0
-343 0
-344 0
-345 0
-346 0
-347 0
-348 0
-381 0
-382 0
-384 0
-385 0
-386 0
-387 0
-388 0
-389 0
-441 0
-442 0
-443 0
-444 0
-445 0
-447 0
-448 0
-449 0
-451 0
-452 0
-453 0
-454 0
-455 0
-456 0
-457 0
-458 0
-481 0
-482 0
-483 0
-484 0
-485 0
-486 0
-488 0
-489 0
-512 0
-513 0
-514 0
-515 0
-516 0
-517 0
-518 0
-519 0
-521 0
-522 0
-523 0
-524 0
-525 0
-527 0
-528 0
-529 0
-551 0
-552 0
-553 0
-554 0
-555 0
-556 0
-558 0
-559 0
-581 0
-583 0
-584 0
-585 0
-586 0
-587 0
-588 0
-589 0
-672 0
-673 0
-674 0
-675 0
-676 0
-677 0
-678 0
-679 0
-691 0
-692 0
-693 0
-694 0
-695 0
-696 0
-697 0
-698 0
-741 0
-742 0
-743 0
-744 0
-746 0
-747 0
-748 0
-749 0
-782 0
-783 0
-784 0
-785 0
-786 0
-787 0
-788 0
-789 0
-811 0
-812 0
-813 0
-815 0
-816 0
-817 0
-818 0
-819 0
-831 0
-832 0
-833 0
-834 0
-835 0
-836 0
-838 0
-839 0
-841 0
-843 0
-844 0
-845 0
-846 0
-847 0
-848 0
-849 0
-871 0
-872 0
-874 0
-875 0
-876 0
-877 0
-878 0
-879 0
-961 0
-962 0
-964 0
-965 0
-966 0
-967 0
-968 0
-969 0
-131 0
-221 0
-311 0
-331 0
-133 0
-223 0
-313 0
-333 0
-134 0
-224 0
-314 0
-334 0
-137 0
-227 0
-317 0
-337 0
-139 0
-229 0
-319 0
-339 0
-149 0
-159 0
-169 0
-249 0
-259 0
-269 0
-359 0
-369 0
-183 0
-193 0
-273 0
-283 0
-293 0
-373 0
-393 0
-188 0
-198 0
-278 0
-288 0
-298 0
-378 0
-398 0
-411 0
-421 0
-431 0
-531 0
-611 0
-621 0
-631 0
-416 0
-426 0
-436 0
-536 0
-616 0
-626 0
-636 0
-466 0
-546 0
-566 0
-646 0
-656 0
-666 0
-467 0
-547 0
-567 0
-647 0
-657 0
-667 0
-469 0
-549 0
-569 0
-649 0
-659 0
-669 0
-471 0
-491 0
-571 0
-591 0
-681 0
-472 0
-492 0
-572 0
-592 0
-682 0
-477 0
-497 0
-577 0
-597 0
-687 0
-479 0
-499 0
-579 0
-599 0
-689 0
-714 0
-724 0
-734 0
-824 0
-914 0
-924 0
-934 0
-717 0
-727 0
-737 0
-827 0
-917 0
-927 0
-937 0
-752 0
-762 0
-852 0
-862 0
-942 0
-952 0
-753 0
-763 0
-853 0
-863 0
-943 0
-953 0
-755 0
-765 0
-855 0
-865 0
-945 0
-955 0
-771 0
-791 0
-881 0
-891 0
-971 0
-981 0
-991 0
-773 0
-793 0
-883 0
-893 0
-973 0
-983 0
-993 0
-141 0
-151 0
-161 0
-181 0
-191 0
-143 0
-153 0
-163 0
-138 0
-148 0
-158 0
-168 0
-244 0
-254 0
-264 0
-274 0
-284 0
-294 0
-279 0
-289 0
-299 0
-353 0
-363 0
-357 0
-367 0
-377 0
-397 0
-379 0
-399 0
-476 0
-496 0
-417 0
-427 0
-437 0
-419 0
-429 0
-439 0
-541 0
-561 0
-532 0
-542 0
-562 0
-576 0
-596 0
-537 0
-641 0
-651 0
-661 0
-619 0
-629 0
-639 0
-711 0
-721 0
-731 0
-751 0
-761 0
-715 0
-725 0
-735 0
-775 0
-795 0
-822 0
-882 0
-892 0
-823 0
-854 0
-864 0
-884 0
-894 0
-857 0
-867 0
-887 0
-897 0
-913 0
-923 0
-933 0
-911 0
-413 0
-613 0
-713 0
-414 0
-614 0
-719 0
-919 0
-821 0
-921 0
-226 0
-726 0
-826 0
-926 0
-627 0
-434 0
-534 0
-634 0
-637 0
-142 0
-242 0
-642 0
-145 0
-245 0
-545 0
-645 0
-146 0
-246 0
-946 0
-949 0
-157 0
-257 0
-757 0
-957 0
-759 0
-859 0
-959 0
-263 0
-463 0
-563 0
-663 0
-271 0
-371 0
-473 0
-573 0
-478 0
-578 0
-778 0
-978 0
-281 0
-182 0
-282 0
-982 0
-683 0
-187 0
-287 0
-987 0
-199 0
-799 0
-899 0
-999 0
189 0
617 0
539 0
461 0
686 0
931 0
-184 0
-185 0
-186 0
-462 0
-464 0
-465 0
-468 0
-533 0
-535 0
-538 0
-612 0
-615 0
-618 0
-684 0
-685 0
-688 0
-932 0
-935 0
-936 0
-938 0
-939 0
-941 0
-951 0
-739 0
-261 0
-361 0
-861 0
-286 0
-886 0
-986 0
-889 0
-989 0
285 0
851 0
241 0
984 0
-243 0
-247 0
-248 0
-856 0
-858 0
-985 0
-988 0
-251 0
-351 0
-195 0
-275 0
-295 0
-375 0
-395 0
-774 0
-794 0
-974 0
-994 0
-291 0
-225 0
-255 0
-265 0
-944 0
-954 0
-885 0
888 0
253 0
391 0
-252 0
-256 0
-258 0
-392 0
-394 0
-396 0
-798 0
-898 0
-998 0
-828 0
-868 0
-653 0
197 0
-192 0
-194 0
-196 0
-277 0
-297 0
-147 0
-167 0
-797 0
-997 0
144 0
267 0
374 0
947 0
-262 0
-266 0
-268 0
-372 0
-376 0
-948 0
-154 0
-164 0
-354 0
-364 0
-767 0
-977 0
-544 0
-644 0
-474 0
-574 0
475 0
575 0
777 0
228 0
-495 0
-595 0
-415 0
-425 0
-435 0
-975 0